p td 60 180
0 59
0 2
0 58
0 3
0 57
0 15
0 52
1 2
1 3
1 59
1 4
1 58
2 3
2 5
2 46
3 4
3 5
3 6
4 5
4 6
4 7
5 6
5 7
5 8
5 13
6 7
6 8
6 9
7 8
7 9
7 10
8 9
8 10
8 11
9 10
9 11
9 12
10 11
10 12
10 13
10 14
10 34
11 12
11 13
11 14
12 13
12 14
12 15
13 14
13 15
14 16
14 17
15 16
15 17
15 33
15 32
16 17
16 18
16 19
17 18
17 19
17 20
18 19
18 20
18 21
19 21
19 22
19 36
20 21
20 22
20 23
20 42
21 22
21 23
21 24
22 24
22 25
22 27
23 24
23 25
23 26
24 26
24 27
24 40
25 26
25 27
25 28
25 44
25 59
26 27
26 28
26 29
27 28
27 29
27 30
27 37
27 48
28 29
28 30
28 31
29 30
29 31
29 32
30 31
30 32
30 33
31 32
31 33
31 34
32 33
32 34
32 35
33 35
33 36
34 35
34 36
35 36
35 37
35 38
36 37
36 38
36 39
37 39
37 40
38 39
38 40
38 41
39 40
39 41
39 42
39 49
40 41
40 42
40 43
40 45
41 42
41 43
41 44
42 43
42 44
43 44
43 45
43 46
44 45
44 46
45 46
45 47
46 47
46 48
46 49
47 48
47 49
47 50
48 50
48 51
49 51
49 52
50 51
50 52
50 53
51 52
51 53
51 54
52 54
52 55
53 54
53 55
53 56
54 55
54 56
54 57
55 56
55 57
55 58
56 57
56 58
56 59
57 58
57 59
58 59
